100 4950
1 2 5
1 3 2
1 4 1
1 5 5
1 6 4
1 7 5
1 8 2
1 9 3
1 10 5
1 11 5
1 12 2
1 13 2
1 14 3
1 15 3
1 16 3
1 17 3
1 18 5
1 19 5
1 20 1
1 21 3
1 22 5
1 23 2
1 24 2
1 25 5
1 26 2
1 27 5
1 28 4
1 29 5
1 30 1
1 31 2
1 32 1
1 33 2
1 34 1
1 35 1
1 36 1
1 37 4
1 38 1
1 39 1
1 40 4
1 41 3
1 42 3
1 43 1
1 44 5
1 45 3
1 46 4
1 47 5
1 48 3
1 49 4
1 50 1
1 51 5
1 52 1
1 53 1
1 54 3
1 55 4
1 56 3
1 57 5
1 58 5
1 59 3
1 60 1
1 61 3
1 62 3
1 63 1
1 64 2
1 65 3
1 66 3
1 67 3
1 68 3
1 69 1
1 70 3
1 71 1
1 72 3
1 73 4
1 74 1
1 75 3
1 76 3
1 77 1
1 78 5
1 79 3
1 80 5
1 81 5
1 82 4
1 83 2
1 84 1
1 85 1
1 86 1
1 87 5
1 88 3
1 89 3
1 90 3
1 91 2
1 92 1
1 93 5
1 94 5
1 95 3
1 96 5
1 97 1
1 98 2
1 99 2
1 100 1
2 3 1
2 4 3
2 5 2
2 6 2
2 7 3
2 8 3
2 9 1
2 10 5
2 11 5
2 12 4
2 13 5
2 14 1
2 15 4
2 16 2
2 17 1
2 18 1
2 19 3
2 20 3
2 21 5
2 22 3
2 23 4
2 24 2
2 25 4
2 26 2
2 27 2
2 28 3
2 29 1
2 30 2
2 31 2
2 32 4
2 33 5
2 34 2
2 35 1
2 36 1
2 37 2
2 38 4
2 39 4
2 40 4
2 41 2
2 42 1
2 43 5
2 44 3
2 45 5
2 46 2
2 47 4
2 48 1
2 49 1
2 50 1
2 51 5
2 52 1
2 53 4
2 54 2
2 55 3
2 56 5
2 57 3
2 58 3
2 59 5
2 60 3
2 61 5
2 62 1
2 63 4
2 64 4
2 65 2
2 66 2
2 67 1
2 68 3
2 69 5
2 70 1
2 71 3
2 72 2
2 73 4
2 74 2
2 75 5
2 76 1
2 77 2
2 78 3
2 79 3
2 80 1
2 81 3
2 82 3
2 83 3
2 84 4
2 85 3
2 86 4
2 87 5
2 88 1
2 89 3
2 90 2
2 91 4
2 92 3
2 93 3
2 94 1
2 95 5
2 96 5
2 97 5
2 98 1
2 99 4
2 100 2
3 4 4
3 5 4
3 6 4
3 7 3
3 8 4
3 9 1
3 10 2
3 11 4
3 12 1
3 13 4
3 14 2
3 15 2
3 16 2
3 17 2
3 18 2
3 19 2
3 20 1
3 21 3
3 22 3
3 23 2
3 24 5
3 25 5
3 26 5
3 27 4
3 28 2
3 29 3
3 30 3
3 31 1
3 32 2
3 33 5
3 34 5
3 35 2
3 36 2
3 37 5
3 38 5
3 39 1
3 40 5
3 41 1
3 42 5
3 43 4
3 44 1
3 45 1
3 46 3
3 47 3
3 48 4
3 49 4
3 50 4
3 51 3
3 52 2
3 53 3
3 54 3
3 55 3
3 56 3
3 57 1
3 58 1
3 59 2
3 60 5
3 61 3
3 62 5
3 63 1
3 64 5
3 65 5
3 66 5
3 67 5
3 68 4
3 69 4
3 70 1
3 71 2
3 72 2
3 73 3
3 74 3
3 75 2
3 76 5
3 77 5
3 78 4
3 79 2
3 80 1
3 81 2
3 82 3
3 83 4
3 84 1
3 85 4
3 86 1
3 87 4
3 88 5
3 89 1
3 90 1
3 91 4
3 92 2
3 93 2
3 94 2
3 95 5
3 96 3
3 97 5
3 98 5
3 99 1
3 100 4
4 5 5
4 6 4
4 7 5
4 8 3
4 9 2
4 10 3
4 11 4
4 12 5
4 13 5
4 14 1
4 15 5
4 16 1
4 17 5
4 18 4
4 19 2
4 20 1
4 21 3
4 22 5
4 23 1
4 24 4
4 25 4
4 26 3
4 27 4
4 28 1
4 29 3
4 30 5
4 31 4
4 32 3
4 33 2
4 34 5
4 35 2
4 36 4
4 37 4
4 38 4
4 39 1
4 40 2
4 41 1
4 42 4
4 43 4
4 44 1
4 45 4
4 46 1
4 47 3
4 48 5
4 49 4
4 50 3
4 51 2
4 52 5
4 53 2
4 54 3
4 55 4
4 56 3
4 57 4
4 58 2
4 59 2
4 60 4
4 61 1
4 62 1
4 63 1
4 64 1
4 65 3
4 66 1
4 67 2
4 68 1
4 69 3
4 70 1
4 71 1
4 72 4
4 73 5
4 74 5
4 75 3
4 76 3
4 77 4
4 78 3
4 79 3
4 80 5
4 81 4
4 82 3
4 83 1
4 84 5
4 85 3
4 86 1
4 87 3
4 88 1
4 89 1
4 90 1
4 91 4
4 92 5
4 93 4
4 94 4
4 95 4
4 96 5
4 97 2
4 98 1
4 99 2
4 100 1
5 6 1
5 7 5
5 8 3
5 9 5
5 10 3
5 11 3
5 12 2
5 13 3
5 14 5
5 15 4
5 16 4
5 17 4
5 18 1
5 19 4
5 20 1
5 21 5
5 22 5
5 23 3
5 24 1
5 25 5
5 26 2
5 27 1
5 28 5
5 29 3
5 30 1
5 31 3
5 32 1
5 33 2
5 34 5
5 35 5
5 36 2
5 37 4
5 38 5
5 39 5
5 40 2
5 41 2
5 42 3
5 43 1
5 44 2
5 45 1
5 46 3
5 47 1
5 48 2
5 49 1
5 50 1
5 51 5
5 52 1
5 53 1
5 54 3
5 55 3
5 56 4
5 57 2
5 58 4
5 59 2
5 60 3
5 61 4
5 62 1
5 63 5
5 64 3
5 65 4
5 66 1
5 67 4
5 68 2
5 69 4
5 70 4
5 71 2
5 72 5
5 73 2
5 74 4
5 75 3
5 76 4
5 77 5
5 78 2
5 79 4
5 80 5
5 81 5
5 82 5
5 83 1
5 84 3
5 85 1
5 86 1
5 87 4
5 88 5
5 89 1
5 90 3
5 91 3
5 92 1
5 93 3
5 94 2
5 95 3
5 96 5
5 97 5
5 98 4
5 99 1
5 100 1
6 7 4
6 8 3
6 9 4
6 10 5
6 11 1
6 12 2
6 13 2
6 14 3
6 15 1
6 16 2
6 17 2
6 18 4
6 19 2
6 20 2
6 21 2
6 22 5
6 23 3
6 24 3
6 25 5
6 26 4
6 27 5
6 28 3
6 29 2
6 30 1
6 31 2
6 32 3
6 33 3
6 34 2
6 35 1
6 36 4
6 37 5
6 38 1
6 39 1
6 40 3
6 41 1
6 42 2
6 43 3
6 44 4
6 45 1
6 46 4
6 47 4
6 48 2
6 49 5
6 50 3
6 51 2
6 52 3
6 53 4
6 54 1
6 55 5
6 56 4
6 57 2
6 58 2
6 59 1
6 60 3
6 61 5
6 62 5
6 63 4
6 64 5
6 65 3
6 66 2
6 67 1
6 68 3
6 69 3
6 70 2
6 71 5
6 72 3
6 73 3
6 74 3
6 75 4
6 76 5
6 77 3
6 78 1
6 79 4
6 80 4
6 81 5
6 82 1
6 83 1
6 84 4
6 85 3
6 86 3
6 87 1
6 88 2
6 89 4
6 90 4
6 91 4
6 92 5
6 93 3
6 94 2
6 95 4
6 96 4
6 97 5
6 98 3
6 99 5
6 100 3
7 8 5
7 9 1
7 10 2
7 11 3
7 12 3
7 13 3
7 14 3
7 15 1
7 16 2
7 17 4
7 18 5
7 19 4
7 20 4
7 21 4
7 22 1
7 23 1
7 24 2
7 25 1
7 26 2
7 27 2
7 28 5
7 29 1
7 30 4
7 31 4
7 32 3
7 33 4
7 34 1
7 35 4
7 36 3
7 37 1
7 38 4
7 39 3
7 40 5
7 41 4
7 42 1
7 43 2
7 44 1
7 45 1
7 46 4
7 47 4
7 48 5
7 49 4
7 50 3
7 51 1
7 52 4
7 53 1
7 54 5
7 55 1
7 56 5
7 57 4
7 58 2
7 59 4
7 60 1
7 61 5
7 62 4
7 63 3
7 64 3
7 65 4
7 66 5
7 67 5
7 68 3
7 69 3
7 70 2
7 71 2
7 72 3
7 73 3
7 74 1
7 75 2
7 76 5
7 77 3
7 78 5
7 79 1
7 80 2
7 81 2
7 82 3
7 83 5
7 84 3
7 85 2
7 86 2
7 87 3
7 88 3
7 89 4
7 90 2
7 91 5
7 92 3
7 93 2
7 94 1
7 95 4
7 96 2
7 97 3
7 98 3
7 99 2
7 100 3
8 9 1
8 10 4
8 11 1
8 12 4
8 13 3
8 14 1
8 15 1
8 16 5
8 17 1
8 18 3
8 19 1
8 20 3
8 21 4
8 22 1
8 23 4
8 24 2
8 25 1
8 26 5
8 27 4
8 28 5
8 29 2
8 30 3
8 31 1
8 32 5
8 33 3
8 34 3
8 35 5
8 36 5
8 37 2
8 38 1
8 39 3
8 40 3
8 41 2
8 42 5
8 43 5
8 44 3
8 45 5
8 46 3
8 47 1
8 48 2
8 49 5
8 50 4
8 51 2
8 52 2
8 53 3
8 54 1
8 55 1
8 56 2
8 57 2
8 58 2
8 59 4
8 60 5
8 61 3
8 62 2
8 63 5
8 64 3
8 65 1
8 66 1
8 67 5
8 68 2
8 69 5
8 70 3
8 71 3
8 72 2
8 73 2
8 74 4
8 75 2
8 76 1
8 77 3
8 78 4
8 79 2
8 80 2
8 81 4
8 82 5
8 83 2
8 84 5
8 85 1
8 86 5
8 87 5
8 88 3
8 89 3
8 90 2
8 91 4
8 92 5
8 93 1
8 94 3
8 95 1
8 96 1
8 97 1
8 98 2
8 99 1
8 100 4
9 10 3
9 11 5
9 12 1
9 13 3
9 14 5
9 15 2
9 16 2
9 17 5
9 18 2
9 19 2
9 20 1
9 21 4
9 22 1
9 23 2
9 24 5
9 25 2
9 26 5
9 27 3
9 28 5
9 29 3
9 30 4
9 31 4
9 32 4
9 33 2
9 34 2
9 35 1
9 36 2
9 37 3
9 38 4
9 39 2
9 40 3
9 41 1
9 42 1
9 43 4
9 44 3
9 45 1
9 46 1
9 47 5
9 48 3
9 49 3
9 50 1
9 51 2
9 52 1
9 53 3
9 54 1
9 55 1
9 56 2
9 57 5
9 58 3
9 59 1
9 60 2
9 61 1
9 62 1
9 63 3
9 64 2
9 65 4
9 66 1
9 67 2
9 68 1
9 69 2
9 70 3
9 71 2
9 72 2
9 73 3
9 74 3
9 75 2
9 76 2
9 77 2
9 78 1
9 79 3
9 80 2
9 81 4
9 82 5
9 83 5
9 84 2
9 85 4
9 86 1
9 87 2
9 88 3
9 89 1
9 90 4
9 91 2
9 92 3
9 93 2
9 94 3
9 95 3
9 96 3
9 97 4
9 98 3
9 99 2
9 100 4
10 11 2
10 12 2
10 13 1
10 14 5
10 15 3
10 16 4
10 17 4
10 18 5
10 19 5
10 20 5
10 21 5
10 22 5
10 23 2
10 24 4
10 25 5
10 26 4
10 27 4
10 28 5
10 29 1
10 30 1
10 31 5
10 32 1
10 33 5
10 34 5
10 35 1
10 36 1
10 37 4
10 38 4
10 39 2
10 40 2
10 41 2
10 42 1
10 43 2
10 44 4
10 45 1
10 46 2
10 47 2
10 48 5
10 49 4
10 50 2
10 51 4
10 52 4
10 53 4
10 54 1
10 55 5
10 56 3
10 57 1
10 58 5
10 59 2
10 60 1
10 61 4
10 62 1
10 63 5
10 64 2
10 65 4
10 66 3
10 67 1
10 68 2
10 69 2
10 70 4
10 71 2
10 72 2
10 73 1
10 74 1
10 75 3
10 76 3
10 77 1
10 78 5
10 79 1
10 80 2
10 81 5
10 82 5
10 83 4
10 84 2
10 85 4
10 86 4
10 87 5
10 88 4
10 89 3
10 90 5
10 91 2
10 92 1
10 93 3
10 94 2
10 95 5
10 96 3
10 97 1
10 98 2
10 99 1
10 100 5
11 12 5
11 13 2
11 14 2
11 15 4
11 16 2
11 17 2
11 18 2
11 19 4
11 20 1
11 21 1
11 22 2
11 23 3
11 24 3
11 25 5
11 26 5
11 27 5
11 28 1
11 29 1
11 30 3
11 31 1
11 32 4
11 33 4
11 34 1
11 35 1
11 36 3
11 37 4
11 38 3
11 39 5
11 40 5
11 41 5
11 42 5
11 43 3
11 44 3
11 45 3
11 46 2
11 47 4
11 48 4
11 49 2
11 50 2
11 51 1
11 52 2
11 53 5
11 54 1
11 55 5
11 56 1
11 57 3
11 58 2
11 59 3
11 60 2
11 61 3
11 62 3
11 63 5
11 64 5
11 65 4
11 66 4
11 67 2
11 68 3
11 69 4
11 70 1
11 71 2
11 72 1
11 73 1
11 74 1
11 75 2
11 76 2
11 77 5
11 78 1
11 79 2
11 80 1
11 81 2
11 82 1
11 83 2
11 84 4
11 85 2
11 86 2
11 87 5
11 88 4
11 89 2
11 90 2
11 91 2
11 92 1
11 93 1
11 94 5
11 95 1
11 96 3
11 97 4
11 98 3
11 99 4
11 100 2
12 13 5
12 14 4
12 15 2
12 16 3
12 17 2
12 18 2
12 19 2
12 20 2
12 21 5
12 22 1
12 23 1
12 24 5
12 25 4
12 26 4
12 27 1
12 28 5
12 29 2
12 30 3
12 31 3
12 32 4
12 33 5
12 34 1
12 35 3
12 36 5
12 37 1
12 38 2
12 39 1
12 40 1
12 41 1
12 42 4
12 43 5
12 44 4
12 45 4
12 46 1
12 47 3
12 48 5
12 49 3
12 50 3
12 51 1
12 52 1
12 53 5
12 54 2
12 55 5
12 56 1
12 57 3
12 58 5
12 59 1
12 60 5
12 61 2
12 62 3
12 63 2
12 64 3
12 65 5
12 66 3
12 67 1
12 68 4
12 69 3
12 70 1
12 71 2
12 72 5
12 73 3
12 74 4
12 75 3
12 76 3
12 77 1
12 78 2
12 79 3
12 80 3
12 81 1
12 82 5
12 83 4
12 84 5
12 85 3
12 86 3
12 87 4
12 88 5
12 89 2
12 90 1
12 91 4
12 92 1
12 93 1
12 94 5
12 95 1
12 96 5
12 97 2
12 98 1
12 99 4
12 100 2
13 14 3
13 15 1
13 16 4
13 17 5
13 18 1
13 19 4
13 20 5
13 21 5
13 22 4
13 23 2
13 24 1
13 25 2
13 26 1
13 27 5
13 28 3
13 29 3
13 30 5
13 31 3
13 32 4
13 33 3
13 34 1
13 35 2
13 36 1
13 37 2
13 38 1
13 39 1
13 40 2
13 41 5
13 42 3
13 43 4
13 44 2
13 45 5
13 46 3
13 47 5
13 48 2
13 49 1
13 50 1
13 51 1
13 52 2
13 53 5
13 54 2
13 55 2
13 56 4
13 57 3
13 58 2
13 59 5
13 60 3
13 61 4
13 62 3
13 63 2
13 64 5
13 65 1
13 66 3
13 67 2
13 68 4
13 69 3
13 70 3
13 71 4
13 72 5
13 73 2
13 74 5
13 75 1
13 76 4
13 77 4
13 78 1
13 79 3
13 80 2
13 81 5
13 82 3
13 83 5
13 84 5
13 85 2
13 86 2
13 87 3
13 88 2
13 89 4
13 90 1
13 91 4
13 92 4
13 93 5
13 94 2
13 95 5
13 96 5
13 97 1
13 98 2
13 99 1
13 100 1
14 15 4
14 16 2
14 17 2
14 18 5
14 19 4
14 20 4
14 21 1
14 22 3
14 23 5
14 24 1
14 25 4
14 26 2
14 27 1
14 28 2
14 29 2
14 30 2
14 31 3
14 32 5
14 33 1
14 34 5
14 35 4
14 36 1
14 37 5
14 38 5
14 39 2
14 40 1
14 41 1
14 42 3
14 43 5
14 44 5
14 45 3
14 46 5
14 47 2
14 48 2
14 49 1
14 50 4
14 51 2
14 52 5
14 53 4
14 54 1
14 55 3
14 56 5
14 57 1
14 58 2
14 59 1
14 60 3
14 61 1
14 62 1
14 63 4
14 64 1
14 65 2
14 66 3
14 67 4
14 68 3
14 69 3
14 70 2
14 71 1
14 72 4
14 73 4
14 74 2
14 75 2
14 76 1
14 77 3
14 78 5
14 79 2
14 80 3
14 81 5
14 82 4
14 83 5
14 84 4
14 85 4
14 86 4
14 87 4
14 88 5
14 89 5
14 90 3
14 91 3
14 92 3
14 93 5
14 94 4
14 95 4
14 96 2
14 97 4
14 98 2
14 99 3
14 100 5
15 16 4
15 17 1
15 18 2
15 19 3
15 20 3
15 21 5
15 22 3
15 23 3
15 24 2
15 25 2
15 26 2
15 27 3
15 28 3
15 29 2
15 30 3
15 31 4
15 32 2
15 33 4
15 34 2
15 35 5
15 36 2
15 37 4
15 38 1
15 39 3
15 40 3
15 41 2
15 42 2
15 43 4
15 44 2
15 45 1
15 46 4
15 47 5
15 48 2
15 49 4
15 50 5
15 51 4
15 52 2
15 53 1
15 54 2
15 55 1
15 56 2
15 57 1
15 58 1
15 59 3
15 60 2
15 61 2
15 62 3
15 63 1
15 64 3
15 65 2
15 66 2
15 67 1
15 68 5
15 69 3
15 70 3
15 71 2
15 72 3
15 73 4
15 74 5
15 75 1
15 76 4
15 77 5
15 78 4
15 79 3
15 80 3
15 81 1
15 82 4
15 83 2
15 84 1
15 85 4
15 86 3
15 87 4
15 88 5
15 89 3
15 90 5
15 91 3
15 92 1
15 93 4
15 94 1
15 95 5
15 96 4
15 97 3
15 98 3
15 99 1
15 100 3
16 17 5
16 18 3
16 19 1
16 20 1
16 21 1
16 22 2
16 23 3
16 24 5
16 25 4
16 26 4
16 27 2
16 28 1
16 29 1
16 30 1
16 31 3
16 32 4
16 33 1
16 34 5
16 35 1
16 36 1
16 37 1
16 38 2
16 39 4
16 40 1
16 41 2
16 42 2
16 43 3
16 44 5
16 45 2
16 46 1
16 47 5
16 48 4
16 49 5
16 50 5
16 51 1
16 52 3
16 53 2
16 54 1
16 55 2
16 56 3
16 57 2
16 58 5
16 59 1
16 60 3
16 61 4
16 62 3
16 63 4
16 64 3
16 65 5
16 66 1
16 67 1
16 68 2
16 69 2
16 70 3
16 71 4
16 72 1
16 73 5
16 74 1
16 75 1
16 76 1
16 77 5
16 78 5
16 79 3
16 80 1
16 81 4
16 82 4
16 83 2
16 84 3
16 85 4
16 86 1
16 87 3
16 88 3
16 89 4
16 90 4
16 91 3
16 92 3
16 93 1
16 94 2
16 95 2
16 96 4
16 97 5
16 98 1
16 99 1
16 100 1
17 18 4
17 19 1
17 20 4
17 21 4
17 22 2
17 23 1
17 24 1
17 25 5
17 26 2
17 27 3
17 28 4
17 29 2
17 30 5
17 31 3
17 32 2
17 33 3
17 34 1
17 35 3
17 36 4
17 37 3
17 38 1
17 39 1
17 40 3
17 41 4
17 42 5
17 43 5
17 44 4
17 45 4
17 46 3
17 47 5
17 48 5
17 49 2
17 50 2
17 51 5
17 52 4
17 53 4
17 54 1
17 55 3
17 56 2
17 57 5
17 58 4
17 59 1
17 60 1
17 61 5
17 62 5
17 63 3
17 64 5
17 65 2
17 66 1
17 67 2
17 68 4
17 69 5
17 70 1
17 71 2
17 72 1
17 73 4
17 74 2
17 75 1
17 76 3
17 77 4
17 78 1
17 79 2
17 80 5
17 81 5
17 82 2
17 83 3
17 84 5
17 85 2
17 86 3
17 87 4
17 88 4
17 89 5
17 90 3
17 91 4
17 92 5
17 93 4
17 94 4
17 95 1
17 96 2
17 97 5
17 98 4
17 99 1
17 100 5
18 19 1
18 20 2
18 21 5
18 22 5
18 23 4
18 24 4
18 25 3
18 26 3
18 27 4
18 28 2
18 29 3
18 30 5
18 31 5
18 32 4
18 33 3
18 34 5
18 35 4
18 36 3
18 37 5
18 38 2
18 39 2
18 40 4
18 41 1
18 42 1
18 43 2
18 44 4
18 45 1
18 46 5
18 47 4
18 48 2
18 49 3
18 50 5
18 51 5
18 52 1
18 53 4
18 54 2
18 55 5
18 56 2
18 57 5
18 58 5
18 59 3
18 60 1
18 61 5
18 62 5
18 63 5
18 64 5
18 65 3
18 66 5
18 67 1
18 68 2
18 69 4
18 70 1
18 71 4
18 72 4
18 73 4
18 74 5
18 75 3
18 76 4
18 77 1
18 78 1
18 79 5
18 80 4
18 81 3
18 82 4
18 83 4
18 84 4
18 85 3
18 86 1
18 87 3
18 88 1
18 89 5
18 90 3
18 91 3
18 92 1
18 93 4
18 94 4
18 95 4
18 96 2
18 97 4
18 98 1
18 99 1
18 100 1
19 20 5
19 21 5
19 22 4
19 23 1
19 24 3
19 25 1
19 26 1
19 27 2
19 28 3
19 29 3
19 30 5
19 31 3
19 32 4
19 33 2
19 34 4
19 35 4
19 36 1
19 37 3
19 38 1
19 39 1
19 40 4
19 41 1
19 42 1
19 43 2
19 44 2
19 45 4
19 46 4
19 47 1
19 48 2
19 49 3
19 50 4
19 51 1
19 52 5
19 53 3
19 54 4
19 55 5
19 56 3
19 57 2
19 58 1
19 59 2
19 60 3
19 61 4
19 62 3
19 63 1
19 64 3
19 65 3
19 66 1
19 67 2
19 68 5
19 69 5
19 70 5
19 71 1
19 72 2
19 73 4
19 74 5
19 75 3
19 76 4
19 77 5
19 78 2
19 79 5
19 80 3
19 81 3
19 82 5
19 83 4
19 84 4
19 85 1
19 86 2
19 87 3
19 88 2
19 89 2
19 90 2
19 91 4
19 92 3
19 93 5
19 94 1
19 95 4
19 96 2
19 97 4
19 98 3
19 99 1
19 100 5
20 21 3
20 22 3
20 23 2
20 24 4
20 25 3
20 26 1
20 27 5
20 28 1
20 29 4
20 30 3
20 31 4
20 32 1
20 33 4
20 34 1
20 35 4
20 36 4
20 37 4
20 38 3
20 39 1
20 40 1
20 41 3
20 42 5
20 43 1
20 44 2
20 45 3
20 46 3
20 47 4
20 48 1
20 49 2
20 50 4
20 51 4
20 52 4
20 53 1
20 54 1
20 55 4
20 56 3
20 57 4
20 58 4
20 59 4
20 60 1
20 61 2
20 62 5
20 63 5
20 64 4
20 65 4
20 66 3
20 67 4
20 68 3
20 69 1
20 70 3
20 71 4
20 72 4
20 73 4
20 74 4
20 75 5
20 76 2
20 77 1
20 78 5
20 79 5
20 80 5
20 81 5
20 82 4
20 83 3
20 84 5
20 85 3
20 86 3
20 87 5
20 88 4
20 89 1
20 90 1
20 91 3
20 92 3
20 93 4
20 94 4
20 95 3
20 96 4
20 97 2
20 98 4
20 99 4
20 100 5
21 22 3
21 23 5
21 24 1
21 25 3
21 26 4
21 27 1
21 28 5
21 29 3
21 30 4
21 31 2
21 32 1
21 33 4
21 34 1
21 35 3
21 36 1
21 37 2
21 38 1
21 39 4
21 40 4
21 41 1
21 42 4
21 43 4
21 44 4
21 45 1
21 46 4
21 47 4
21 48 3
21 49 5
21 50 3
21 51 4
21 52 4
21 53 5
21 54 2
21 55 1
21 56 3
21 57 5
21 58 5
21 59 1
21 60 2
21 61 1
21 62 4
21 63 4
21 64 4
21 65 4
21 66 2
21 67 4
21 68 3
21 69 5
21 70 5
21 71 5
21 72 3
21 73 3
21 74 1
21 75 2
21 76 2
21 77 5
21 78 2
21 79 5
21 80 3
21 81 5
21 82 5
21 83 4
21 84 1
21 85 5
21 86 5
21 87 2
21 88 1
21 89 1
21 90 1
21 91 3
21 92 3
21 93 4
21 94 3
21 95 3
21 96 5
21 97 2
21 98 4
21 99 5
21 100 4
22 23 2
22 24 3
22 25 3
22 26 1
22 27 1
22 28 4
22 29 2
22 30 1
22 31 1
22 32 4
22 33 1
22 34 5
22 35 2
22 36 2
22 37 2
22 38 1
22 39 5
22 40 5
22 41 5
22 42 1
22 43 5
22 44 5
22 45 3
22 46 4
22 47 2
22 48 4
22 49 2
22 50 3
22 51 4
22 52 4
22 53 4
22 54 5
22 55 5
22 56 3
22 57 1
22 58 3
22 59 3
22 60 5
22 61 3
22 62 5
22 63 3
22 64 1
22 65 2
22 66 5
22 67 4
22 68 5
22 69 3
22 70 2
22 71 2
22 72 2
22 73 2
22 74 4
22 75 3
22 76 2
22 77 5
22 78 4
22 79 4
22 80 1
22 81 4
22 82 5
22 83 5
22 84 1
22 85 5
22 86 5
22 87 2
22 88 3
22 89 4
22 90 5
22 91 4
22 92 2
22 93 4
22 94 2
22 95 3
22 96 1
22 97 5
22 98 5
22 99 3
22 100 4
23 24 2
23 25 5
23 26 4
23 27 5
23 28 2
23 29 3
23 30 4
23 31 5
23 32 2
23 33 1
23 34 3
23 35 1
23 36 2
23 37 4
23 38 3
23 39 5
23 40 1
23 41 3
23 42 5
23 43 2
23 44 2
23 45 3
23 46 5
23 47 2
23 48 2
23 49 4
23 50 5
23 51 2
23 52 3
23 53 5
23 54 2
23 55 5
23 56 1
23 57 3
23 58 1
23 59 1
23 60 3
23 61 2
23 62 5
23 63 1
23 64 3
23 65 1
23 66 5
23 67 5
23 68 4
23 69 4
23 70 4
23 71 4
23 72 1
23 73 2
23 74 4
23 75 4
23 76 4
23 77 5
23 78 5
23 79 2
23 80 4
23 81 5
23 82 1
23 83 3
23 84 2
23 85 3
23 86 1
23 87 2
23 88 4
23 89 2
23 90 1
23 91 2
23 92 1
23 93 1
23 94 5
23 95 1
23 96 5
23 97 5
23 98 3
23 99 5
23 100 2
24 25 5
24 26 4
24 27 1
24 28 1
24 29 1
24 30 3
24 31 5
24 32 3
24 33 4
24 34 3
24 35 5
24 36 1
24 37 2
24 38 3
24 39 4
24 40 3
24 41 1
24 42 2
24 43 5
24 44 2
24 45 3
24 46 2
24 47 1
24 48 2
24 49 2
24 50 4
24 51 1
24 52 3
24 53 4
24 54 1
24 55 5
24 56 3
24 57 3
24 58 3
24 59 1
24 60 3
24 61 1
24 62 5
24 63 5
24 64 2
24 65 1
24 66 4
24 67 4
24 68 2
24 69 1
24 70 5
24 71 2
24 72 2
24 73 2
24 74 4
24 75 3
24 76 4
24 77 3
24 78 2
24 79 5
24 80 1
24 81 1
24 82 2
24 83 5
24 84 3
24 85 1
24 86 1
24 87 1
24 88 1
24 89 4
24 90 5
24 91 2
24 92 1
24 93 4
24 94 5
24 95 2
24 96 1
24 97 3
24 98 2
24 99 2
24 100 4
25 26 3
25 27 5
25 28 3
25 29 1
25 30 1
25 31 1
25 32 3
25 33 2
25 34 3
25 35 5
25 36 2
25 37 5
25 38 1
25 39 4
25 40 1
25 41 5
25 42 1
25 43 5
25 44 2
25 45 5
25 46 2
25 47 2
25 48 2
25 49 1
25 50 2
25 51 5
25 52 4
25 53 3
25 54 1
25 55 1
25 56 1
25 57 1
25 58 3
25 59 4
25 60 3
25 61 4
25 62 5
25 63 5
25 64 1
25 65 5
25 66 5
25 67 2
25 68 2
25 69 1
25 70 5
25 71 2
25 72 4
25 73 1
25 74 5
25 75 4
25 76 5
25 77 4
25 78 4
25 79 3
25 80 2
25 81 5
25 82 4
25 83 4
25 84 2
25 85 4
25 86 4
25 87 1
25 88 1
25 89 2
25 90 5
25 91 5
25 92 3
25 93 1
25 94 5
25 95 2
25 96 4
25 97 5
25 98 3
25 99 4
25 100 2
26 27 2
26 28 4
26 29 2
26 30 5
26 31 5
26 32 1
26 33 4
26 34 1
26 35 4
26 36 1
26 37 1
26 38 4
26 39 3
26 40 3
26 41 1
26 42 5
26 43 1
26 44 1
26 45 2
26 46 4
26 47 2
26 48 3
26 49 4
26 50 2
26 51 1
26 52 2
26 53 5
26 54 3
26 55 1
26 56 4
26 57 4
26 58 2
26 59 3
26 60 1
26 61 4
26 62 3
26 63 1
26 64 4
26 65 2
26 66 5
26 67 1
26 68 5
26 69 3
26 70 5
26 71 4
26 72 1
26 73 2
26 74 2
26 75 4
26 76 5
26 77 3
26 78 2
26 79 3
26 80 5
26 81 1
26 82 4
26 83 1
26 84 1
26 85 1
26 86 2
26 87 3
26 88 2
26 89 2
26 90 5
26 91 3
26 92 4
26 93 2
26 94 3
26 95 2
26 96 5
26 97 3
26 98 2
26 99 3
26 100 3
27 28 5
27 29 5
27 30 5
27 31 5
27 32 3
27 33 3
27 34 4
27 35 3
27 36 4
27 37 1
27 38 3
27 39 4
27 40 4
27 41 3
27 42 5
27 43 1
27 44 5
27 45 3
27 46 5
27 47 1
27 48 3
27 49 4
27 50 2
27 51 3
27 52 5
27 53 3
27 54 2
27 55 4
27 56 2
27 57 1
27 58 1
27 59 3
27 60 5
27 61 5
27 62 1
27 63 4
27 64 3
27 65 3
27 66 5
27 67 4
27 68 5
27 69 3
27 70 5
27 71 1
27 72 4
27 73 4
27 74 3
27 75 3
27 76 1
27 77 2
27 78 2
27 79 2
27 80 3
27 81 4
27 82 1
27 83 3
27 84 5
27 85 2
27 86 1
27 87 5
27 88 1
27 89 5
27 90 3
27 91 4
27 92 1
27 93 2
27 94 2
27 95 1
27 96 4
27 97 1
27 98 2
27 99 2
27 100 1
28 29 2
28 30 4
28 31 1
28 32 1
28 33 4
28 34 3
28 35 4
28 36 2
28 37 4
28 38 1
28 39 1
28 40 1
28 41 5
28 42 3
28 43 1
28 44 4
28 45 5
28 46 4
28 47 3
28 48 1
28 49 1
28 50 2
28 51 5
28 52 4
28 53 5
28 54 2
28 55 1
28 56 3
28 57 1
28 58 5
28 59 5
28 60 1
28 61 1
28 62 1
28 63 3
28 64 4
28 65 5
28 66 1
28 67 2
28 68 5
28 69 3
28 70 4
28 71 2
28 72 5
28 73 1
28 74 1
28 75 4
28 76 4
28 77 1
28 78 4
28 79 1
28 80 5
28 81 2
28 82 3
28 83 3
28 84 1
28 85 4
28 86 2
28 87 2
28 88 1
28 89 4
28 90 4
28 91 4
28 92 1
28 93 1
28 94 3
28 95 2
28 96 3
28 97 3
28 98 5
28 99 4
28 100 5
29 30 4
29 31 4
29 32 3
29 33 3
29 34 4
29 35 2
29 36 1
29 37 2
29 38 3
29 39 1
29 40 1
29 41 2
29 42 1
29 43 3
29 44 3
29 45 2
29 46 2
29 47 5
29 48 1
29 49 4
29 50 5
29 51 3
29 52 2
29 53 4
29 54 3
29 55 2
29 56 1
29 57 4
29 58 2
29 59 1
29 60 3
29 61 1
29 62 3
29 63 5
29 64 1
29 65 4
29 66 2
29 67 4
29 68 2
29 69 4
29 70 1
29 71 3
29 72 5
29 73 2
29 74 1
29 75 4
29 76 2
29 77 5
29 78 5
29 79 4
29 80 4
29 81 2
29 82 2
29 83 1
29 84 4
29 85 3
29 86 5
29 87 4
29 88 3
29 89 1
29 90 2
29 91 1
29 92 1
29 93 3
29 94 2
29 95 2
29 96 3
29 97 2
29 98 4
29 99 1
29 100 2
30 31 5
30 32 5
30 33 1
30 34 2
30 35 1
30 36 4
30 37 1
30 38 4
30 39 3
30 40 3
30 41 4
30 42 5
30 43 3
30 44 4
30 45 5
30 46 5
30 47 3
30 48 3
30 49 2
30 50 4
30 51 5
30 52 3
30 53 4
30 54 1
30 55 3
30 56 2
30 57 2
30 58 5
30 59 5
30 60 2
30 61 2
30 62 3
30 63 1
30 64 1
30 65 2
30 66 3
30 67 4
30 68 1
30 69 4
30 70 4
30 71 2
30 72 3
30 73 2
30 74 5
30 75 1
30 76 4
30 77 5
30 78 5
30 79 4
30 80 4
30 81 1
30 82 3
30 83 3
30 84 4
30 85 4
30 86 2
30 87 4
30 88 4
30 89 1
30 90 5
30 91 1
30 92 1
30 93 4
30 94 4
30 95 4
30 96 5
30 97 4
30 98 2
30 99 5
30 100 4
31 32 3
31 33 2
31 34 2
31 35 5
31 36 5
31 37 1
31 38 1
31 39 5
31 40 5
31 41 5
31 42 2
31 43 2
31 44 1
31 45 4
31 46 3
31 47 1
31 48 2
31 49 4
31 50 2
31 51 3
31 52 1
31 53 2
31 54 3
31 55 2
31 56 4
31 57 2
31 58 3
31 59 1
31 60 2
31 61 3
31 62 1
31 63 5
31 64 5
31 65 2
31 66 3
31 67 2
31 68 3
31 69 1
31 70 3
31 71 3
31 72 2
31 73 5
31 74 1
31 75 4
31 76 1
31 77 4
31 78 1
31 79 2
31 80 2
31 81 2
31 82 1
31 83 4
31 84 2
31 85 5
31 86 4
31 87 5
31 88 1
31 89 4
31 90 4
31 91 5
31 92 5
31 93 5
31 94 3
31 95 1
31 96 3
31 97 5
31 98 4
31 99 1
31 100 3
32 33 2
32 34 5
32 35 2
32 36 1
32 37 3
32 38 4
32 39 1
32 40 3
32 41 5
32 42 4
32 43 3
32 44 1
32 45 4
32 46 1
32 47 5
32 48 1
32 49 3
32 50 5
32 51 3
32 52 5
32 53 1
32 54 2
32 55 3
32 56 5
32 57 2
32 58 2
32 59 1
32 60 2
32 61 2
32 62 1
32 63 2
32 64 2
32 65 5
32 66 1
32 67 4
32 68 3
32 69 2
32 70 5
32 71 1
32 72 3
32 73 2
32 74 2
32 75 3
32 76 3
32 77 1
32 78 5
32 79 2
32 80 3
32 81 1
32 82 4
32 83 4
32 84 1
32 85 3
32 86 3
32 87 5
32 88 2
32 89 4
32 90 4
32 91 1
32 92 3
32 93 4
32 94 3
32 95 2
32 96 2
32 97 3
32 98 3
32 99 2
32 100 5
33 34 5
33 35 5
33 36 1
33 37 2
33 38 2
33 39 2
33 40 4
33 41 4
33 42 1
33 43 5
33 44 5
33 45 4
33 46 4
33 47 5
33 48 4
33 49 5
33 50 5
33 51 5
33 52 5
33 53 5
33 54 4
33 55 3
33 56 2
33 57 1
33 58 1
33 59 3
33 60 3
33 61 4
33 62 2
33 63 1
33 64 4
33 65 5
33 66 3
33 67 2
33 68 4
33 69 4
33 70 4
33 71 3
33 72 1
33 73 2
33 74 2
33 75 3
33 76 4
33 77 1
33 78 3
33 79 3
33 80 3
33 81 2
33 82 5
33 83 5
33 84 2
33 85 1
33 86 4
33 87 1
33 88 2
33 89 4
33 90 5
33 91 4
33 92 3
33 93 1
33 94 1
33 95 3
33 96 4
33 97 5
33 98 4
33 99 3
33 100 3
34 35 5
34 36 5
34 37 1
34 38 2
34 39 1
34 40 1
34 41 3
34 42 2
34 43 5
34 44 4
34 45 4
34 46 2
34 47 5
34 48 3
34 49 2
34 50 5
34 51 2
34 52 1
34 53 4
34 54 1
34 55 2
34 56 1
34 57 1
34 58 3
34 59 4
34 60 3
34 61 5
34 62 1
34 63 5
34 64 5
34 65 2
34 66 5
34 67 4
34 68 4
34 69 1
34 70 2
34 71 3
34 72 2
34 73 1
34 74 1
34 75 5
34 76 4
34 77 2
34 78 3
34 79 1
34 80 2
34 81 3
34 82 3
34 83 4
34 84 4
34 85 4
34 86 1
34 87 2
34 88 1
34 89 4
34 90 1
34 91 5
34 92 2
34 93 2
34 94 3
34 95 2
34 96 2
34 97 1
34 98 5
34 99 3
34 100 2
35 36 3
35 37 4
35 38 2
35 39 4
35 40 5
35 41 3
35 42 2
35 43 5
35 44 2
35 45 4
35 46 1
35 47 5
35 48 2
35 49 3
35 50 1
35 51 5
35 52 3
35 53 4
35 54 4
35 55 2
35 56 1
35 57 5
35 58 1
35 59 1
35 60 3
35 61 5
35 62 4
35 63 5
35 64 1
35 65 5
35 66 4
35 67 4
35 68 4
35 69 4
35 70 4
35 71 5
35 72 1
35 73 3
35 74 3
35 75 3
35 76 5
35 77 4
35 78 2
35 79 4
35 80 4
35 81 2
35 82 2
35 83 2
35 84 1
35 85 5
35 86 4
35 87 4
35 88 2
35 89 3
35 90 3
35 91 5
35 92 5
35 93 4
35 94 3
35 95 3
35 96 2
35 97 1
35 98 2
35 99 5
35 100 2
36 37 5
36 38 1
36 39 2
36 40 1
36 41 5
36 42 1
36 43 1
36 44 2
36 45 4
36 46 5
36 47 5
36 48 4
36 49 2
36 50 4
36 51 1
36 52 4
36 53 4
36 54 2
36 55 4
36 56 2
36 57 4
36 58 5
36 59 2
36 60 4
36 61 2
36 62 3
36 63 1
36 64 5
36 65 2
36 66 3
36 67 1
36 68 2
36 69 2
36 70 4
36 71 1
36 72 5
36 73 2
36 74 4
36 75 5
36 76 1
36 77 1
36 78 3
36 79 4
36 80 4
36 81 1
36 82 4
36 83 3
36 84 4
36 85 5
36 86 5
36 87 1
36 88 3
36 89 3
36 90 3
36 91 1
36 92 2
36 93 3
36 94 4
36 95 4
36 96 3
36 97 1
36 98 2
36 99 4
36 100 5
37 38 1
37 39 1
37 40 4
37 41 2
37 42 1
37 43 1
37 44 2
37 45 5
37 46 5
37 47 4
37 48 3
37 49 5
37 50 3
37 51 1
37 52 4
37 53 4
37 54 4
37 55 2
37 56 1
37 57 5
37 58 3
37 59 1
37 60 4
37 61 3
37 62 4
37 63 2
37 64 3
37 65 3
37 66 3
37 67 1
37 68 4
37 69 3
37 70 4
37 71 2
37 72 1
37 73 5
37 74 3
37 75 3
37 76 5
37 77 1
37 78 4
37 79 1
37 80 2
37 81 1
37 82 1
37 83 3
37 84 5
37 85 2
37 86 5
37 87 3
37 88 2
37 89 1
37 90 2
37 91 1
37 92 3
37 93 3
37 94 5
37 95 2
37 96 5
37 97 4
37 98 1
37 99 2
37 100 5
38 39 1
38 40 1
38 41 5
38 42 5
38 43 2
38 44 4
38 45 2
38 46 1
38 47 4
38 48 1
38 49 5
38 50 1
38 51 1
38 52 4
38 53 2
38 54 5
38 55 3
38 56 2
38 57 1
38 58 4
38 59 4
38 60 1
38 61 3
38 62 4
38 63 3
38 64 5
38 65 1
38 66 3
38 67 5
38 68 3
38 69 1
38 70 1
38 71 1
38 72 3
38 73 1
38 74 3
38 75 5
38 76 5
38 77 5
38 78 2
38 79 4
38 80 5
38 81 4
38 82 1
38 83 2
38 84 1
38 85 5
38 86 5
38 87 2
38 88 3
38 89 2
38 90 3
38 91 3
38 92 1
38 93 2
38 94 5
38 95 3
38 96 1
38 97 3
38 98 1
38 99 5
38 100 4
39 40 3
39 41 5
39 42 1
39 43 4
39 44 5
39 45 5
39 46 3
39 47 2
39 48 1
39 49 4
39 50 1
39 51 4
39 52 3
39 53 1
39 54 3
39 55 1
39 56 4
39 57 3
39 58 1
39 59 3
39 60 3
39 61 5
39 62 4
39 63 3
39 64 4
39 65 4
39 66 2
39 67 1
39 68 1
39 69 3
39 70 2
39 71 1
39 72 3
39 73 3
39 74 5
39 75 5
39 76 3
39 77 4
39 78 5
39 79 5
39 80 2
39 81 3
39 82 1
39 83 4
39 84 5
39 85 4
39 86 4
39 87 1
39 88 5
39 89 1
39 90 5
39 91 3
39 92 4
39 93 5
39 94 4
39 95 4
39 96 5
39 97 2
39 98 3
39 99 1
39 100 2
40 41 4
40 42 2
40 43 2
40 44 4
40 45 5
40 46 1
40 47 3
40 48 1
40 49 3
40 50 1
40 51 3
40 52 5
40 53 4
40 54 5
40 55 5
40 56 3
40 57 1
40 58 5
40 59 2
40 60 5
40 61 5
40 62 2
40 63 5
40 64 3
40 65 2
40 66 5
40 67 2
40 68 2
40 69 5
40 70 1
40 71 1
40 72 5
40 73 4
40 74 1
40 75 4
40 76 2
40 77 1
40 78 1
40 79 5
40 80 1
40 81 2
40 82 2
40 83 2
40 84 3
40 85 2
40 86 2
40 87 1
40 88 2
40 89 4
40 90 1
40 91 5
40 92 3
40 93 3
40 94 1
40 95 2
40 96 3
40 97 1
40 98 1
40 99 1
40 100 1
41 42 5
41 43 1
41 44 5
41 45 4
41 46 5
41 47 4
41 48 3
41 49 5
41 50 1
41 51 5
41 52 2
41 53 4
41 54 1
41 55 1
41 56 1
41 57 2
41 58 3
41 59 5
41 60 3
41 61 2
41 62 4
41 63 5
41 64 2
41 65 2
41 66 3
41 67 1
41 68 1
41 69 5
41 70 1
41 71 2
41 72 5
41 73 3
41 74 2
41 75 5
41 76 3
41 77 5
41 78 3
41 79 3
41 80 2
41 81 3
41 82 2
41 83 3
41 84 1
41 85 4
41 86 3
41 87 5
41 88 4
41 89 4
41 90 1
41 91 3
41 92 4
41 93 3
41 94 5
41 95 2
41 96 3
41 97 4
41 98 2
41 99 4
41 100 5
42 43 1
42 44 4
42 45 5
42 46 2
42 47 1
42 48 1
42 49 1
42 50 3
42 51 5
42 52 5
42 53 2
42 54 1
42 55 2
42 56 3
42 57 3
42 58 2
42 59 4
42 60 5
42 61 5
42 62 5
42 63 3
42 64 5
42 65 4
42 66 5
42 67 1
42 68 5
42 69 1
42 70 3
42 71 2
42 72 3
42 73 4
42 74 5
42 75 5
42 76 2
42 77 3
42 78 2
42 79 4
42 80 3
42 81 1
42 82 5
42 83 2
42 84 4
42 85 4
42 86 1
42 87 3
42 88 4
42 89 3
42 90 5
42 91 4
42 92 1
42 93 4
42 94 5
42 95 4
42 96 1
42 97 2
42 98 5
42 99 4
42 100 4
43 44 4
43 45 2
43 46 4
43 47 2
43 48 2
43 49 1
43 50 5
43 51 5
43 52 4
43 53 5
43 54 4
43 55 2
43 56 5
43 57 3
43 58 4
43 59 2
43 60 1
43 61 2
43 62 2
43 63 3
43 64 2
43 65 1
43 66 4
43 67 5
43 68 4
43 69 1
43 70 4
43 71 3
43 72 4
43 73 3
43 74 4
43 75 2
43 76 4
43 77 4
43 78 1
43 79 4
43 80 3
43 81 1
43 82 2
43 83 3
43 84 3
43 85 3
43 86 2
43 87 4
43 88 4
43 89 5
43 90 2
43 91 4
43 92 2
43 93 3
43 94 5
43 95 5
43 96 2
43 97 1
43 98 3
43 99 1
43 100 3
44 45 2
44 46 5
44 47 1
44 48 2
44 49 2
44 50 4
44 51 4
44 52 2
44 53 4
44 54 2
44 55 1
44 56 3
44 57 1
44 58 2
44 59 1
44 60 2
44 61 5
44 62 3
44 63 3
44 64 5
44 65 1
44 66 3
44 67 2
44 68 2
44 69 1
44 70 1
44 71 1
44 72 1
44 73 1
44 74 1
44 75 1
44 76 4
44 77 4
44 78 5
44 79 5
44 80 4
44 81 2
44 82 4
44 83 1
44 84 1
44 85 2
44 86 3
44 87 1
44 88 2
44 89 5
44 90 5
44 91 4
44 92 5
44 93 4
44 94 1
44 95 2
44 96 2
44 97 2
44 98 4
44 99 2
44 100 3
45 46 5
45 47 1
45 48 4
45 49 3
45 50 3
45 51 2
45 52 5
45 53 4
45 54 1
45 55 5
45 56 1
45 57 2
45 58 2
45 59 3
45 60 4
45 61 4
45 62 3
45 63 4
45 64 3
45 65 4
45 66 5
45 67 2
45 68 2
45 69 4
45 70 3
45 71 2
45 72 1
45 73 2
45 74 3
45 75 5
45 76 1
45 77 1
45 78 2
45 79 5
45 80 2
45 81 1
45 82 3
45 83 2
45 84 4
45 85 1
45 86 4
45 87 4
45 88 3
45 89 5
45 90 4
45 91 2
45 92 1
45 93 3
45 94 5
45 95 2
45 96 2
45 97 1
45 98 4
45 99 2
45 100 4
46 47 4
46 48 5
46 49 3
46 50 1
46 51 1
46 52 4
46 53 1
46 54 2
46 55 1
46 56 1
46 57 1
46 58 3
46 59 1
46 60 2
46 61 5
46 62 3
46 63 4
46 64 2
46 65 3
46 66 5
46 67 4
46 68 1
46 69 5
46 70 2
46 71 5
46 72 5
46 73 5
46 74 2
46 75 3
46 76 5
46 77 5
46 78 2
46 79 4
46 80 3
46 81 3
46 82 1
46 83 1
46 84 1
46 85 1
46 86 3
46 87 5
46 88 5
46 89 3
46 90 2
46 91 5
46 92 3
46 93 2
46 94 5
46 95 2
46 96 1
46 97 4
46 98 2
46 99 2
46 100 4
47 48 3
47 49 5
47 50 4
47 51 1
47 52 5
47 53 4
47 54 1
47 55 2
47 56 4
47 57 5
47 58 1
47 59 5
47 60 4
47 61 2
47 62 3
47 63 1
47 64 5
47 65 1
47 66 4
47 67 4
47 68 4
47 69 2
47 70 5
47 71 3
47 72 1
47 73 3
47 74 3
47 75 4
47 76 2
47 77 2
47 78 4
47 79 5
47 80 5
47 81 1
47 82 4
47 83 2
47 84 3
47 85 5
47 86 4
47 87 2
47 88 4
47 89 5
47 90 5
47 91 4
47 92 3
47 93 2
47 94 3
47 95 1
47 96 1
47 97 5
47 98 1
47 99 4
47 100 1
48 49 3
48 50 5
48 51 3
48 52 2
48 53 4
48 54 3
48 55 5
48 56 2
48 57 2
48 58 2
48 59 5
48 60 5
48 61 2
48 62 1
48 63 2
48 64 5
48 65 5
48 66 2
48 67 2
48 68 5
48 69 4
48 70 5
48 71 4
48 72 3
48 73 5
48 74 3
48 75 5
48 76 1
48 77 1
48 78 5
48 79 5
48 80 5
48 81 1
48 82 2
48 83 3
48 84 2
48 85 3
48 86 4
48 87 3
48 88 1
48 89 5
48 90 5
48 91 3
48 92 2
48 93 3
48 94 2
48 95 3
48 96 1
48 97 3
48 98 4
48 99 3
48 100 3
49 50 1
49 51 4
49 52 5
49 53 2
49 54 5
49 55 4
49 56 1
49 57 5
49 58 2
49 59 4
49 60 5
49 61 3
49 62 5
49 63 2
49 64 2
49 65 1
49 66 4
49 67 3
49 68 2
49 69 4
49 70 4
49 71 4
49 72 2
49 73 5
49 74 4
49 75 3
49 76 1
49 77 2
49 78 5
49 79 2
49 80 5
49 81 4
49 82 4
49 83 5
49 84 5
49 85 4
49 86 4
49 87 1
49 88 5
49 89 4
49 90 3
49 91 2
49 92 4
49 93 4
49 94 5
49 95 3
49 96 4
49 97 5
49 98 2
49 99 3
49 100 5
50 51 4
50 52 4
50 53 2
50 54 1
50 55 4
50 56 3
50 57 2
50 58 1
50 59 5
50 60 4
50 61 2
50 62 3
50 63 3
50 64 5
50 65 2
50 66 4
50 67 5
50 68 5
50 69 1
50 70 1
50 71 5
50 72 3
50 73 4
50 74 3
50 75 5
50 76 3
50 77 1
50 78 3
50 79 5
50 80 2
50 81 3
50 82 4
50 83 1
50 84 4
50 85 4
50 86 2
50 87 2
50 88 5
50 89 2
50 90 2
50 91 4
50 92 2
50 93 2
50 94 2
50 95 4
50 96 3
50 97 3
50 98 5
50 99 3
50 100 4
51 52 5
51 53 5
51 54 1
51 55 2
51 56 4
51 57 1
51 58 4
51 59 2
51 60 2
51 61 2
51 62 1
51 63 4
51 64 5
51 65 3
51 66 3
51 67 4
51 68 4
51 69 1
51 70 3
51 71 4
51 72 5
51 73 2
51 74 2
51 75 3
51 76 4
51 77 4
51 78 2
51 79 2
51 80 5
51 81 4
51 82 1
51 83 3
51 84 2
51 85 2
51 86 5
51 87 3
51 88 4
51 89 1
51 90 3
51 91 1
51 92 4
51 93 2
51 94 2
51 95 2
51 96 2
51 97 4
51 98 5
51 99 2
51 100 4
52 53 1
52 54 2
52 55 2
52 56 1
52 57 2
52 58 2
52 59 5
52 60 1
52 61 1
52 62 4
52 63 4
52 64 2
52 65 3
52 66 2
52 67 3
52 68 2
52 69 5
52 70 1
52 71 4
52 72 1
52 73 3
52 74 1
52 75 4
52 76 5
52 77 4
52 78 4
52 79 2
52 80 2
52 81 2
52 82 3
52 83 1
52 84 2
52 85 4
52 86 1
52 87 5
52 88 2
52 89 1
52 90 4
52 91 5
52 92 1
52 93 5
52 94 2
52 95 3
52 96 2
52 97 4
52 98 3
52 99 2
52 100 1
53 54 1
53 55 3
53 56 5
53 57 4
53 58 5
53 59 1
53 60 3
53 61 4
53 62 1
53 63 4
53 64 4
53 65 4
53 66 1
53 67 5
53 68 5
53 69 1
53 70 2
53 71 2
53 72 4
53 73 1
53 74 1
53 75 2
53 76 2
53 77 3
53 78 4
53 79 2
53 80 3
53 81 4
53 82 2
53 83 5
53 84 4
53 85 1
53 86 4
53 87 5
53 88 1
53 89 4
53 90 5
53 91 2
53 92 1
53 93 5
53 94 2
53 95 4
53 96 2
53 97 3
53 98 2
53 99 5
53 100 5
54 55 2
54 56 1
54 57 4
54 58 3
54 59 4
54 60 2
54 61 4
54 62 5
54 63 2
54 64 2
54 65 1
54 66 5
54 67 5
54 68 1
54 69 5
54 70 1
54 71 4
54 72 3
54 73 2
54 74 4
54 75 1
54 76 4
54 77 2
54 78 3
54 79 4
54 80 4
54 81 3
54 82 1
54 83 5
54 84 1
54 85 2
54 86 1
54 87 1
54 88 3
54 89 2
54 90 3
54 91 2
54 92 3
54 93 5
54 94 1
54 95 1
54 96 4
54 97 5
54 98 5
54 99 3
54 100 4
55 56 1
55 57 2
55 58 3
55 59 5
55 60 2
55 61 2
55 62 5
55 63 1
55 64 3
55 65 3
55 66 4
55 67 4
55 68 3
55 69 4
55 70 4
55 71 3
55 72 4
55 73 5
55 74 1
55 75 2
55 76 3
55 77 2
55 78 5
55 79 5
55 80 2
55 81 1
55 82 1
55 83 5
55 84 1
55 85 3
55 86 2
55 87 5
55 88 2
55 89 3
55 90 1
55 91 4
55 92 2
55 93 1
55 94 5
55 95 3
55 96 3
55 97 5
55 98 3
55 99 2
55 100 1
56 57 3
56 58 1
56 59 2
56 60 5
56 61 5
56 62 3
56 63 5
56 64 5
56 65 4
56 66 3
56 67 2
56 68 4
56 69 4
56 70 3
56 71 3
56 72 4
56 73 5
56 74 4
56 75 2
56 76 2
56 77 2
56 78 3
56 79 1
56 80 3
56 81 2
56 82 1
56 83 2
56 84 2
56 85 5
56 86 2
56 87 5
56 88 2
56 89 3
56 90 3
56 91 3
56 92 3
56 93 3
56 94 4
56 95 4
56 96 3
56 97 1
56 98 3
56 99 4
56 100 2
57 58 4
57 59 1
57 60 4
57 61 1
57 62 1
57 63 4
57 64 1
57 65 3
57 66 3
57 67 2
57 68 1
57 69 5
57 70 1
57 71 5
57 72 4
57 73 1
57 74 1
57 75 3
57 76 3
57 77 2
57 78 4
57 79 2
57 80 4
57 81 3
57 82 5
57 83 4
57 84 4
57 85 5
57 86 5
57 87 1
57 88 5
57 89 3
57 90 3
57 91 5
57 92 5
57 93 3
57 94 2
57 95 3
57 96 3
57 97 3
57 98 2
57 99 2
57 100 3
58 59 1
58 60 2
58 61 3
58 62 3
58 63 1
58 64 2
58 65 4
58 66 1
58 67 2
58 68 4
58 69 3
58 70 3
58 71 1
58 72 2
58 73 4
58 74 5
58 75 3
58 76 4
58 77 1
58 78 2
58 79 5
58 80 1
58 81 1
58 82 3
58 83 1
58 84 3
58 85 3
58 86 5
58 87 2
58 88 2
58 89 1
58 90 3
58 91 2
58 92 1
58 93 1
58 94 2
58 95 1
58 96 3
58 97 1
58 98 5
58 99 5
58 100 4
59 60 3
59 61 1
59 62 1
59 63 4
59 64 2
59 65 1
59 66 5
59 67 4
59 68 4
59 69 1
59 70 1
59 71 2
59 72 5
59 73 5
59 74 4
59 75 1
59 76 2
59 77 2
59 78 2
59 79 3
59 80 4
59 81 5
59 82 4
59 83 3
59 84 2
59 85 5
59 86 4
59 87 3
59 88 5
59 89 4
59 90 4
59 91 3
59 92 3
59 93 1
59 94 3
59 95 2
59 96 3
59 97 3
59 98 3
59 99 2
59 100 1
60 61 3
60 62 4
60 63 1
60 64 4
60 65 1
60 66 2
60 67 2
60 68 3
60 69 4
60 70 1
60 71 3
60 72 5
60 73 4
60 74 5
60 75 4
60 76 3
60 77 1
60 78 3
60 79 1
60 80 1
60 81 5
60 82 4
60 83 3
60 84 1
60 85 5
60 86 3
60 87 5
60 88 5
60 89 1
60 90 1
60 91 2
60 92 1
60 93 3
60 94 4
60 95 3
60 96 1
60 97 2
60 98 5
60 99 4
60 100 1
61 62 1
61 63 1
61 64 1
61 65 2
61 66 5
61 67 4
61 68 3
61 69 1
61 70 4
61 71 1
61 72 2
61 73 2
61 74 5
61 75 1
61 76 5
61 77 4
61 78 3
61 79 5
61 80 5
61 81 3
61 82 5
61 83 2
61 84 4
61 85 3
61 86 4
61 87 1
61 88 5
61 89 5
61 90 2
61 91 2
61 92 3
61 93 4
61 94 4
61 95 2
61 96 4
61 97 3
61 98 3
61 99 3
61 100 4
62 63 5
62 64 2
62 65 5
62 66 4
62 67 5
62 68 2
62 69 4
62 70 1
62 71 3
62 72 1
62 73 3
62 74 2
62 75 3
62 76 1
62 77 4
62 78 2
62 79 1
62 80 4
62 81 3
62 82 4
62 83 5
62 84 2
62 85 3
62 86 2
62 87 5
62 88 5
62 89 5
62 90 5
62 91 2
62 92 1
62 93 1
62 94 5
62 95 5
62 96 3
62 97 1
62 98 2
62 99 2
62 100 5
63 64 4
63 65 1
63 66 5
63 67 4
63 68 1
63 69 5
63 70 1
63 71 3
63 72 2
63 73 3
63 74 4
63 75 1
63 76 5
63 77 2
63 78 3
63 79 5
63 80 2
63 81 3
63 82 4
63 83 2
63 84 3
63 85 2
63 86 2
63 87 2
63 88 3
63 89 4
63 90 1
63 91 4
63 92 1
63 93 1
63 94 1
63 95 4
63 96 1
63 97 2
63 98 2
63 99 2
63 100 4
64 65 2
64 66 1
64 67 2
64 68 1
64 69 1
64 70 3
64 71 4
64 72 5
64 73 3
64 74 1
64 75 4
64 76 1
64 77 1
64 78 1
64 79 3
64 80 5
64 81 1
64 82 5
64 83 2
64 84 4
64 85 3
64 86 3
64 87 3
64 88 3
64 89 3
64 90 5
64 91 3
64 92 1
64 93 2
64 94 4
64 95 1
64 96 1
64 97 1
64 98 5
64 99 3
64 100 3
65 66 3
65 67 3
65 68 3
65 69 4
65 70 2
65 71 3
65 72 4
65 73 5
65 74 1
65 75 3
65 76 3
65 77 5
65 78 5
65 79 2
65 80 2
65 81 2
65 82 1
65 83 5
65 84 3
65 85 2
65 86 3
65 87 5
65 88 5
65 89 4
65 90 3
65 91 2
65 92 1
65 93 1
65 94 4
65 95 3
65 96 2
65 97 3
65 98 3
65 99 1
65 100 3
66 67 5
66 68 3
66 69 2
66 70 5
66 71 4
66 72 5
66 73 2
66 74 4
66 75 4
66 76 4
66 77 1
66 78 3
66 79 3
66 80 5
66 81 1
66 82 5
66 83 4
66 84 5
66 85 2
66 86 1
66 87 5
66 88 3
66 89 2
66 90 1
66 91 2
66 92 2
66 93 5
66 94 2
66 95 2
66 96 4
66 97 1
66 98 3
66 99 5
66 100 1
67 68 4
67 69 4
67 70 3
67 71 5
67 72 3
67 73 1
67 74 1
67 75 4
67 76 1
67 77 2
67 78 2
67 79 1
67 80 5
67 81 5
67 82 3
67 83 1
67 84 3
67 85 5
67 86 5
67 87 5
67 88 4
67 89 3
67 90 3
67 91 1
67 92 1
67 93 1
67 94 2
67 95 5
67 96 2
67 97 4
67 98 4
67 99 5
67 100 3
68 69 5
68 70 5
68 71 1
68 72 1
68 73 2
68 74 3
68 75 5
68 76 2
68 77 5
68 78 4
68 79 1
68 80 3
68 81 1
68 82 3
68 83 4
68 84 3
68 85 5
68 86 4
68 87 4
68 88 4
68 89 5
68 90 5
68 91 1
68 92 5
68 93 3
68 94 2
68 95 1
68 96 5
68 97 5
68 98 3
68 99 1
68 100 1
69 70 3
69 71 3
69 72 5
69 73 1
69 74 2
69 75 1
69 76 1
69 77 3
69 78 3
69 79 1
69 80 3
69 81 2
69 82 2
69 83 3
69 84 5
69 85 3
69 86 5
69 87 2
69 88 2
69 89 5
69 90 3
69 91 3
69 92 4
69 93 3
69 94 3
69 95 1
69 96 5
69 97 2
69 98 4
69 99 1
69 100 5
70 71 3
70 72 5
70 73 1
70 74 3
70 75 2
70 76 5
70 77 5
70 78 3
70 79 2
70 80 4
70 81 3
70 82 1
70 83 2
70 84 3
70 85 3
70 86 2
70 87 3
70 88 4
70 89 2
70 90 5
70 91 4
70 92 1
70 93 5
70 94 2
70 95 1
70 96 4
70 97 5
70 98 2
70 99 5
70 100 5
71 72 3
71 73 4
71 74 3
71 75 1
71 76 4
71 77 1
71 78 2
71 79 2
71 80 1
71 81 2
71 82 3
71 83 5
71 84 2
71 85 4
71 86 1
71 87 4
71 88 1
71 89 5
71 90 2
71 91 3
71 92 2
71 93 5
71 94 2
71 95 4
71 96 2
71 97 3
71 98 5
71 99 5
71 100 1
72 73 1
72 74 4
72 75 1
72 76 5
72 77 3
72 78 2
72 79 4
72 80 5
72 81 2
72 82 5
72 83 5
72 84 1
72 85 1
72 86 5
72 87 1
72 88 3
72 89 5
72 90 2
72 91 3
72 92 3
72 93 3
72 94 4
72 95 3
72 96 4
72 97 3
72 98 4
72 99 2
72 100 3
73 74 3
73 75 1
73 76 1
73 77 3
73 78 2
73 79 3
73 80 4
73 81 2
73 82 3
73 83 4
73 84 4
73 85 4
73 86 3
73 87 5
73 88 3
73 89 3
73 90 5
73 91 4
73 92 3
73 93 4
73 94 5
73 95 2
73 96 5
73 97 2
73 98 4
73 99 4
73 100 4
74 75 2
74 76 1
74 77 4
74 78 3
74 79 1
74 80 3
74 81 4
74 82 5
74 83 3
74 84 2
74 85 5
74 86 2
74 87 4
74 88 3
74 89 1
74 90 3
74 91 2
74 92 5
74 93 2
74 94 4
74 95 1
74 96 1
74 97 1
74 98 2
74 99 3
74 100 5
75 76 1
75 77 1
75 78 5
75 79 4
75 80 1
75 81 5
75 82 4
75 83 5
75 84 5
75 85 5
75 86 2
75 87 2
75 88 1
75 89 4
75 90 3
75 91 1
75 92 4
75 93 2
75 94 4
75 95 5
75 96 5
75 97 1
75 98 1
75 99 4
75 100 4
76 77 2
76 78 1
76 79 2
76 80 1
76 81 1
76 82 4
76 83 3
76 84 5
76 85 2
76 86 4
76 87 5
76 88 1
76 89 5
76 90 1
76 91 4
76 92 2
76 93 4
76 94 2
76 95 1
76 96 4
76 97 3
76 98 4
76 99 3
76 100 3
77 78 5
77 79 4
77 80 3
77 81 1
77 82 1
77 83 2
77 84 2
77 85 1
77 86 5
77 87 1
77 88 3
77 89 5
77 90 4
77 91 2
77 92 3
77 93 1
77 94 4
77 95 1
77 96 2
77 97 1
77 98 5
77 99 3
77 100 2
78 79 1
78 80 4
78 81 5
78 82 1
78 83 4
78 84 1
78 85 5
78 86 2
78 87 1
78 88 1
78 89 1
78 90 5
78 91 2
78 92 5
78 93 2
78 94 1
78 95 3
78 96 3
78 97 2
78 98 5
78 99 4
78 100 2
79 80 1
79 81 2
79 82 2
79 83 1
79 84 2
79 85 3
79 86 4
79 87 1
79 88 5
79 89 4
79 90 4
79 91 5
79 92 2
79 93 2
79 94 3
79 95 5
79 96 4
79 97 5
79 98 1
79 99 1
79 100 1
80 81 3
80 82 1
80 83 2
80 84 5
80 85 2
80 86 5
80 87 3
80 88 1
80 89 4
80 90 3
80 91 1
80 92 2
80 93 4
80 94 2
80 95 5
80 96 4
80 97 4
80 98 1
80 99 2
80 100 1
81 82 3
81 83 1
81 84 3
81 85 2
81 86 3
81 87 4
81 88 2
81 89 2
81 90 1
81 91 4
81 92 1
81 93 2
81 94 3
81 95 2
81 96 5
81 97 3
81 98 1
81 99 2
81 100 2
82 83 5
82 84 1
82 85 3
82 86 4
82 87 2
82 88 5
82 89 2
82 90 2
82 91 3
82 92 1
82 93 1
82 94 5
82 95 2
82 96 1
82 97 1
82 98 5
82 99 1
82 100 2
83 84 3
83 85 2
83 86 1
83 87 5
83 88 1
83 89 5
83 90 5
83 91 2
83 92 2
83 93 3
83 94 5
83 95 5
83 96 3
83 97 5
83 98 3
83 99 4
83 100 1
84 85 5
84 86 3
84 87 1
84 88 4
84 89 5
84 90 3
84 91 1
84 92 5
84 93 3
84 94 1
84 95 2
84 96 5
84 97 3
84 98 1
84 99 1
84 100 5
85 86 3
85 87 4
85 88 2
85 89 1
85 90 3
85 91 5
85 92 4
85 93 3
85 94 3
85 95 4
85 96 5
85 97 5
85 98 2
85 99 3
85 100 3
86 87 4
86 88 4
86 89 5
86 90 2
86 91 2
86 92 5
86 93 4
86 94 2
86 95 2
86 96 1
86 97 3
86 98 5
86 99 5
86 100 1
87 88 4
87 89 4
87 90 1
87 91 1
87 92 4
87 93 3
87 94 2
87 95 4
87 96 4
87 97 1
87 98 1
87 99 3
87 100 5
88 89 1
88 90 5
88 91 2
88 92 5
88 93 2
88 94 1
88 95 3
88 96 2
88 97 3
88 98 5
88 99 5
88 100 1
89 90 2
89 91 4
89 92 4
89 93 3
89 94 1
89 95 5
89 96 1
89 97 5
89 98 3
89 99 3
89 100 2
90 91 3
90 92 5
90 93 5
90 94 2
90 95 2
90 96 3
90 97 5
90 98 3
90 99 3
90 100 2
91 92 5
91 93 4
91 94 2
91 95 2
91 96 5
91 97 4
91 98 2
91 99 2
91 100 5
92 93 1
92 94 2
92 95 4
92 96 5
92 97 3
92 98 2
92 99 5
92 100 5
93 94 2
93 95 1
93 96 5
93 97 1
93 98 5
93 99 1
93 100 1
94 95 5
94 96 2
94 97 1
94 98 1
94 99 4
94 100 5
95 96 5
95 97 5
95 98 1
95 99 2
95 100 3
96 97 4
96 98 3
96 99 4
96 100 3
97 98 4
97 99 1
97 100 4
98 99 1
98 100 1
99 100 5
